c Generated map
c Size: 30 * 30, weights in range: 1 to 10, walls: True, with ratio 0.05
c dim 1 of 3
c
p sp 900 1568
c graph contains 900 nodes and 1568 arcs
c
a 1 31 9
a 31 1 9
a 1 2 7
a 2 1 7
a 2 32 3
a 32 2 3
a 2 3 6
a 3 2 6
a 3 33 1
a 33 3 1
a 3 4 4
a 4 3 4
a 4 34 9
a 34 4 9
a 4 5 5
a 5 4 5
a 5 6 4
a 6 5 4
a 6 36 4
a 36 6 4
a 6 7 6
a 7 6 6
a 7 37 4
a 37 7 4
a 7 8 9
a 8 7 9
a 8 38 1
a 38 8 1
a 10 40 10
a 40 10 10
a 10 11 3
a 11 10 3
a 11 12 4
a 12 11 4
a 12 42 4
a 42 12 4
a 12 13 8
a 13 12 8
a 13 43 1
a 43 13 1
a 13 14 6
a 14 13 6
a 14 44 2
a 44 14 2
a 14 15 9
a 15 14 9
a 15 45 7
a 45 15 7
a 15 16 3
a 16 15 3
a 16 46 3
a 46 16 3
a 16 17 4
a 17 16 4
a 17 47 1
a 47 17 1
a 17 18 8
a 18 17 8
a 18 48 6
a 48 18 6
a 18 19 4
a 19 18 4
a 19 49 4
a 49 19 4
a 19 20 6
a 20 19 6
a 20 50 3
a 50 20 3
a 20 21 6
a 21 20 6
a 21 51 4
a 51 21 4
a 21 22 8
a 22 21 8
a 22 52 7
a 52 22 7
a 22 23 3
a 23 22 3
a 23 53 7
a 53 23 7
a 23 24 10
a 24 23 10
a 24 54 9
a 54 24 9
a 24 25 7
a 25 24 7
a 25 26 10
a 26 25 10
a 26 56 10
a 56 26 10
a 26 27 10
a 27 26 10
a 27 57 6
a 57 27 6
a 27 28 2
a 28 27 2
a 28 58 8
a 58 28 8
a 28 29 6
a 29 28 6
a 29 59 8
a 59 29 8
a 29 30 3
a 30 29 3
a 30 60 2
a 60 30 2
a 31 61 6
a 61 31 6
a 31 32 7
a 32 31 7
a 32 62 8
a 62 32 8
a 32 33 9
a 33 32 9
a 33 63 3
a 63 33 3
a 33 34 1
a 34 33 1
a 34 64 6
a 64 34 6
a 36 66 4
a 66 36 4
a 36 37 5
a 37 36 5
a 37 38 6
a 38 37 6
a 38 68 9
a 68 38 9
a 38 39 1
a 39 38 1
a 39 69 4
a 69 39 4
a 39 40 10
a 40 39 10
a 40 70 8
a 70 40 8
a 42 72 1
a 72 42 1
a 42 43 1
a 43 42 1
a 43 73 5
a 73 43 5
a 43 44 2
a 44 43 2
a 44 74 1
a 74 44 1
a 44 45 2
a 45 44 2
a 45 75 8
a 75 45 8
a 45 46 2
a 46 45 2
a 46 76 2
a 76 46 2
a 46 47 4
a 47 46 4
a 47 77 3
a 77 47 3
a 47 48 2
a 48 47 2
a 48 78 8
a 78 48 8
a 48 49 4
a 49 48 4
a 49 79 1
a 79 49 1
a 49 50 1
a 50 49 1
a 50 80 6
a 80 50 6
a 50 51 3
a 51 50 3
a 51 81 8
a 81 51 8
a 51 52 6
a 52 51 6
a 52 82 2
a 82 52 2
a 52 53 2
a 53 52 2
a 53 83 9
a 83 53 9
a 53 54 9
a 54 53 9
a 54 84 10
a 84 54 10
a 56 86 7
a 86 56 7
a 56 57 9
a 57 56 9
a 57 87 3
a 87 57 3
a 57 58 2
a 58 57 2
a 58 88 7
a 88 58 7
a 58 59 8
a 59 58 8
a 59 89 3
a 89 59 3
a 59 60 4
a 60 59 4
a 60 90 7
a 90 60 7
a 61 91 3
a 91 61 3
a 61 62 1
a 62 61 1
a 62 92 3
a 92 62 3
a 62 63 8
a 63 62 8
a 63 93 8
a 93 63 8
a 63 64 3
a 64 63 3
a 64 94 5
a 94 64 5
a 64 65 1
a 65 64 1
a 65 95 9
a 95 65 9
a 65 66 9
a 66 65 9
a 66 96 7
a 96 66 7
a 68 98 6
a 98 68 6
a 68 69 5
a 69 68 5
a 69 99 2
a 99 69 2
a 69 70 3
a 70 69 3
a 70 100 6
a 100 70 6
a 70 71 2
a 71 70 2
a 71 101 7
a 101 71 7
a 71 72 8
a 72 71 8
a 72 102 6
a 102 72 6
a 72 73 4
a 73 72 4
a 73 103 1
a 103 73 1
a 73 74 1
a 74 73 1
a 74 104 2
a 104 74 2
a 74 75 5
a 75 74 5
a 75 105 5
a 105 75 5
a 75 76 6
a 76 75 6
a 76 106 4
a 106 76 4
a 76 77 5
a 77 76 5
a 77 107 6
a 107 77 6
a 77 78 1
a 78 77 1
a 78 108 3
a 108 78 3
a 78 79 2
a 79 78 2
a 79 109 9
a 109 79 9
a 79 80 7
a 80 79 7
a 80 110 3
a 110 80 3
a 80 81 5
a 81 80 5
a 81 111 9
a 111 81 9
a 81 82 6
a 82 81 6
a 82 112 10
a 112 82 10
a 82 83 6
a 83 82 6
a 83 113 1
a 113 83 1
a 83 84 9
a 84 83 9
a 84 114 8
a 114 84 8
a 84 85 6
a 85 84 6
a 85 115 5
a 115 85 5
a 85 86 6
a 86 85 6
a 86 116 3
a 116 86 3
a 86 87 10
a 87 86 10
a 87 117 1
a 117 87 1
a 87 88 5
a 88 87 5
a 88 118 1
a 118 88 1
a 88 89 10
a 89 88 10
a 89 119 2
a 119 89 2
a 89 90 2
a 90 89 2
a 90 120 10
a 120 90 10
a 91 121 1
a 121 91 1
a 91 92 1
a 92 91 1
a 92 122 5
a 122 92 5
a 92 93 7
a 93 92 7
a 93 94 3
a 94 93 3
a 94 124 5
a 124 94 5
a 94 95 9
a 95 94 9
a 95 125 8
a 125 95 8
a 95 96 4
a 96 95 4
a 96 126 4
a 126 96 4
a 96 97 6
a 97 96 6
a 97 127 1
a 127 97 1
a 97 98 9
a 98 97 9
a 98 128 7
a 128 98 7
a 98 99 6
a 99 98 6
a 99 129 4
a 129 99 4
a 99 100 5
a 100 99 5
a 100 130 1
a 130 100 1
a 100 101 1
a 101 100 1
a 101 131 1
a 131 101 1
a 101 102 10
a 102 101 10
a 102 132 4
a 132 102 4
a 102 103 5
a 103 102 5
a 103 133 2
a 133 103 2
a 103 104 7
a 104 103 7
a 104 134 7
a 134 104 7
a 104 105 1
a 105 104 1
a 105 135 9
a 135 105 9
a 105 106 9
a 106 105 9
a 106 136 10
a 136 106 10
a 106 107 4
a 107 106 4
a 107 137 7
a 137 107 7
a 107 108 7
a 108 107 7
a 108 138 5
a 138 108 5
a 108 109 1
a 109 108 1
a 109 139 5
a 139 109 5
a 109 110 4
a 110 109 4
a 110 140 1
a 140 110 1
a 110 111 5
a 111 110 5
a 111 141 10
a 141 111 10
a 111 112 1
a 112 111 1
a 112 142 4
a 142 112 4
a 112 113 10
a 113 112 10
a 113 143 7
a 143 113 7
a 113 114 1
a 114 113 1
a 114 144 1
a 144 114 1
a 114 115 7
a 115 114 7
a 115 145 3
a 145 115 3
a 115 116 4
a 116 115 4
a 116 146 1
a 146 116 1
a 116 117 5
a 117 116 5
a 117 147 5
a 147 117 5
a 117 118 5
a 118 117 5
a 118 148 5
a 148 118 5
a 118 119 6
a 119 118 6
a 119 149 5
a 149 119 5
a 119 120 3
a 120 119 3
a 120 150 3
a 150 120 3
a 121 151 4
a 151 121 4
a 121 122 2
a 122 121 2
a 122 152 8
a 152 122 8
a 124 154 2
a 154 124 2
a 124 125 2
a 125 124 2
a 125 155 5
a 155 125 5
a 125 126 1
a 126 125 1
a 126 156 4
a 156 126 4
a 126 127 3
a 127 126 3
a 127 157 8
a 157 127 8
a 127 128 7
a 128 127 7
a 128 158 4
a 158 128 4
a 128 129 4
a 129 128 4
a 129 130 10
a 130 129 10
a 130 160 1
a 160 130 1
a 130 131 8
a 131 130 8
a 131 161 9
a 161 131 9
a 131 132 4
a 132 131 4
a 132 162 5
a 162 132 5
a 132 133 2
a 133 132 2
a 133 163 8
a 163 133 8
a 133 134 3
a 134 133 3
a 134 164 4
a 164 134 4
a 134 135 8
a 135 134 8
a 135 165 3
a 165 135 3
a 135 136 5
a 136 135 5
a 136 166 3
a 166 136 3
a 136 137 10
a 137 136 10
a 137 167 1
a 167 137 1
a 137 138 1
a 138 137 1
a 138 168 2
a 168 138 2
a 138 139 1
a 139 138 1
a 139 169 5
a 169 139 5
a 139 140 7
a 140 139 7
a 140 170 6
a 170 140 6
a 140 141 10
a 141 140 10
a 141 171 9
a 171 141 9
a 141 142 2
a 142 141 2
a 142 172 2
a 172 142 2
a 142 143 9
a 143 142 9
a 143 173 4
a 173 143 4
a 143 144 2
a 144 143 2
a 144 174 2
a 174 144 2
a 144 145 4
a 145 144 4
a 145 175 7
a 175 145 7
a 145 146 5
a 146 145 5
a 146 176 3
a 176 146 3
a 146 147 3
a 147 146 3
a 147 177 8
a 177 147 8
a 147 148 6
a 148 147 6
a 148 178 6
a 178 148 6
a 148 149 10
a 149 148 10
a 149 179 9
a 179 149 9
a 149 150 7
a 150 149 7
a 150 180 5
a 180 150 5
a 151 181 4
a 181 151 4
a 151 152 8
a 152 151 8
a 152 182 8
a 182 152 8
a 152 153 8
a 153 152 8
a 153 183 9
a 183 153 9
a 153 154 4
a 154 153 4
a 154 184 10
a 184 154 10
a 154 155 10
a 155 154 10
a 155 185 7
a 185 155 7
a 155 156 10
a 156 155 10
a 156 186 8
a 186 156 8
a 156 157 10
a 157 156 10
a 157 187 10
a 187 157 10
a 157 158 1
a 158 157 1
a 158 188 4
a 188 158 4
a 160 190 1
a 190 160 1
a 160 161 8
a 161 160 8
a 161 191 3
a 191 161 3
a 161 162 1
a 162 161 1
a 162 192 8
a 192 162 8
a 162 163 3
a 163 162 3
a 163 193 2
a 193 163 2
a 163 164 3
a 164 163 3
a 164 194 10
a 194 164 10
a 164 165 4
a 165 164 4
a 165 195 10
a 195 165 10
a 165 166 10
a 166 165 10
a 166 196 8
a 196 166 8
a 166 167 9
a 167 166 9
a 167 197 8
a 197 167 8
a 167 168 4
a 168 167 4
a 168 198 7
a 198 168 7
a 168 169 7
a 169 168 7
a 169 199 9
a 199 169 9
a 169 170 10
a 170 169 10
a 170 200 5
a 200 170 5
a 170 171 7
a 171 170 7
a 171 201 1
a 201 171 1
a 171 172 10
a 172 171 10
a 172 173 5
a 173 172 5
a 173 203 7
a 203 173 7
a 173 174 4
a 174 173 4
a 174 204 4
a 204 174 4
a 174 175 9
a 175 174 9
a 175 205 9
a 205 175 9
a 175 176 3
a 176 175 3
a 176 206 1
a 206 176 1
a 176 177 5
a 177 176 5
a 177 178 3
a 178 177 3
a 178 208 1
a 208 178 1
a 178 179 3
a 179 178 3
a 179 209 4
a 209 179 4
a 179 180 10
a 180 179 10
a 180 210 2
a 210 180 2
a 181 211 6
a 211 181 6
a 181 182 2
a 182 181 2
a 182 212 1
a 212 182 1
a 182 183 10
a 183 182 10
a 183 213 8
a 213 183 8
a 183 184 1
a 184 183 1
a 184 214 2
a 214 184 2
a 184 185 5
a 185 184 5
a 185 186 9
a 186 185 9
a 186 216 4
a 216 186 4
a 186 187 3
a 187 186 3
a 187 217 3
a 217 187 3
a 187 188 2
a 188 187 2
a 188 189 8
a 189 188 8
a 189 219 4
a 219 189 4
a 189 190 6
a 190 189 6
a 190 220 5
a 220 190 5
a 190 191 10
a 191 190 10
a 191 221 6
a 221 191 6
a 191 192 4
a 192 191 4
a 192 222 8
a 222 192 8
a 192 193 7
a 193 192 7
a 193 223 10
a 223 193 10
a 193 194 1
a 194 193 1
a 194 224 3
a 224 194 3
a 194 195 10
a 195 194 10
a 195 225 4
a 225 195 4
a 195 196 2
a 196 195 2
a 196 226 6
a 226 196 6
a 196 197 7
a 197 196 7
a 197 227 3
a 227 197 3
a 197 198 6
a 198 197 6
a 198 228 8
a 228 198 8
a 198 199 6
a 199 198 6
a 199 229 4
a 229 199 4
a 199 200 3
a 200 199 3
a 200 230 5
a 230 200 5
a 200 201 7
a 201 200 7
a 201 231 1
a 231 201 1
a 203 233 1
a 233 203 1
a 203 204 6
a 204 203 6
a 204 234 3
a 234 204 3
a 204 205 4
a 205 204 4
a 205 206 3
a 206 205 3
a 206 236 9
a 236 206 9
a 208 238 6
a 238 208 6
a 208 209 8
a 209 208 8
a 209 210 5
a 210 209 5
a 210 240 9
a 240 210 9
a 211 241 8
a 241 211 8
a 211 212 6
a 212 211 6
a 212 242 7
a 242 212 7
a 212 213 4
a 213 212 4
a 213 243 4
a 243 213 4
a 213 214 1
a 214 213 1
a 214 244 3
a 244 214 3
a 216 246 6
a 246 216 6
a 216 217 5
a 217 216 5
a 217 247 5
a 247 217 5
a 219 249 3
a 249 219 3
a 219 220 6
a 220 219 6
a 220 250 9
a 250 220 9
a 220 221 10
a 221 220 10
a 221 251 7
a 251 221 7
a 221 222 9
a 222 221 9
a 222 252 10
a 252 222 10
a 222 223 10
a 223 222 10
a 223 253 7
a 253 223 7
a 223 224 3
a 224 223 3
a 224 254 8
a 254 224 8
a 224 225 1
a 225 224 1
a 225 255 9
a 255 225 9
a 225 226 5
a 226 225 5
a 226 256 6
a 256 226 6
a 226 227 7
a 227 226 7
a 227 257 6
a 257 227 6
a 227 228 8
a 228 227 8
a 228 258 2
a 258 228 2
a 228 229 8
a 229 228 8
a 229 259 1
a 259 229 1
a 229 230 4
a 230 229 4
a 230 260 6
a 260 230 6
a 230 231 5
a 231 230 5
a 231 261 2
a 261 231 2
a 231 232 9
a 232 231 9
a 232 262 8
a 262 232 8
a 232 233 7
a 233 232 7
a 233 263 4
a 263 233 4
a 233 234 4
a 234 233 4
a 234 264 1
a 264 234 1
a 236 266 10
a 266 236 10
a 236 237 4
a 237 236 4
a 237 267 1
a 267 237 1
a 237 238 9
a 238 237 9
a 238 268 7
a 268 238 7
a 240 270 2
a 270 240 2
a 241 271 5
a 271 241 5
a 241 242 5
a 242 241 5
a 242 272 5
a 272 242 5
a 242 243 5
a 243 242 5
a 243 273 3
a 273 243 3
a 243 244 10
a 244 243 10
a 244 274 8
a 274 244 8
a 244 245 2
a 245 244 2
a 245 275 1
a 275 245 1
a 245 246 6
a 246 245 6
a 246 276 9
a 276 246 9
a 246 247 6
a 247 246 6
a 247 277 5
a 277 247 5
a 247 248 4
a 248 247 4
a 248 278 6
a 278 248 6
a 248 249 5
a 249 248 5
a 249 279 3
a 279 249 3
a 249 250 4
a 250 249 4
a 250 280 4
a 280 250 4
a 250 251 3
a 251 250 3
a 251 281 6
a 281 251 6
a 251 252 3
a 252 251 3
a 252 253 7
a 253 252 7
a 253 283 9
a 283 253 9
a 253 254 7
a 254 253 7
a 254 284 5
a 284 254 5
a 254 255 2
a 255 254 2
a 255 285 9
a 285 255 9
a 255 256 6
a 256 255 6
a 256 257 7
a 257 256 7
a 257 287 4
a 287 257 4
a 257 258 1
a 258 257 1
a 258 288 9
a 288 258 9
a 258 259 2
a 259 258 2
a 259 289 10
a 289 259 10
a 259 260 2
a 260 259 2
a 260 290 2
a 290 260 2
a 260 261 5
a 261 260 5
a 261 291 1
a 291 261 1
a 261 262 9
a 262 261 9
a 262 292 6
a 292 262 6
a 262 263 6
a 263 262 6
a 263 293 4
a 293 263 4
a 263 264 2
a 264 263 2
a 264 294 3
a 294 264 3
a 264 265 1
a 265 264 1
a 265 295 10
a 295 265 10
a 265 266 4
a 266 265 4
a 266 296 4
a 296 266 4
a 266 267 7
a 267 266 7
a 267 297 8
a 297 267 8
a 267 268 1
a 268 267 1
a 268 298 2
a 298 268 2
a 268 269 7
a 269 268 7
a 269 299 1
a 299 269 1
a 269 270 2
a 270 269 2
a 270 300 9
a 300 270 9
a 271 301 4
a 301 271 4
a 271 272 5
a 272 271 5
a 272 302 2
a 302 272 2
a 272 273 2
a 273 272 2
a 273 303 6
a 303 273 6
a 273 274 8
a 274 273 8
a 274 304 1
a 304 274 1
a 274 275 6
a 275 274 6
a 275 305 6
a 305 275 6
a 275 276 2
a 276 275 2
a 276 306 8
a 306 276 8
a 276 277 4
a 277 276 4
a 277 307 1
a 307 277 1
a 277 278 3
a 278 277 3
a 278 308 2
a 308 278 2
a 278 279 9
a 279 278 9
a 279 309 10
a 309 279 10
a 279 280 4
a 280 279 4
a 280 310 2
a 310 280 2
a 280 281 6
a 281 280 6
a 281 311 7
a 311 281 7
a 283 313 9
a 313 283 9
a 283 284 7
a 284 283 7
a 284 314 8
a 314 284 8
a 284 285 9
a 285 284 9
a 285 315 1
a 315 285 1
a 287 317 8
a 317 287 8
a 287 288 5
a 288 287 5
a 288 318 5
a 318 288 5
a 288 289 5
a 289 288 5
a 289 319 10
a 319 289 10
a 289 290 9
a 290 289 9
a 290 320 8
a 320 290 8
a 290 291 6
a 291 290 6
a 291 321 2
a 321 291 2
a 291 292 7
a 292 291 7
a 292 322 9
a 322 292 9
a 292 293 10
a 293 292 10
a 293 323 2
a 323 293 2
a 293 294 9
a 294 293 9
a 294 324 2
a 324 294 2
a 294 295 2
a 295 294 2
a 295 325 10
a 325 295 10
a 295 296 4
a 296 295 4
a 296 326 7
a 326 296 7
a 296 297 10
a 297 296 10
a 297 327 1
a 327 297 1
a 297 298 9
a 298 297 9
a 298 328 8
a 328 298 8
a 298 299 4
a 299 298 4
a 299 300 3
a 300 299 3
a 300 330 2
a 330 300 2
a 301 302 10
a 302 301 10
a 302 332 10
a 332 302 10
a 302 303 4
a 303 302 4
a 303 333 9
a 333 303 9
a 303 304 2
a 304 303 2
a 304 334 2
a 334 304 2
a 304 305 7
a 305 304 7
a 305 335 9
a 335 305 9
a 305 306 1
a 306 305 1
a 306 336 2
a 336 306 2
a 306 307 7
a 307 306 7
a 307 337 1
a 337 307 1
a 307 308 8
a 308 307 8
a 308 338 2
a 338 308 2
a 308 309 10
a 309 308 10
a 309 339 4
a 339 309 4
a 309 310 7
a 310 309 7
a 310 340 10
a 340 310 10
a 310 311 1
a 311 310 1
a 311 341 6
a 341 311 6
a 313 343 5
a 343 313 5
a 313 314 6
a 314 313 6
a 314 344 2
a 344 314 2
a 314 315 7
a 315 314 7
a 315 345 8
a 345 315 8
a 315 316 10
a 316 315 10
a 316 346 3
a 346 316 3
a 316 317 1
a 317 316 1
a 317 347 10
a 347 317 10
a 317 318 1
a 318 317 1
a 318 348 5
a 348 318 5
a 318 319 6
a 319 318 6
a 319 349 3
a 349 319 3
a 319 320 1
a 320 319 1
a 320 350 8
a 350 320 8
a 320 321 5
a 321 320 5
a 321 351 3
a 351 321 3
a 321 322 8
a 322 321 8
a 322 352 10
a 352 322 10
a 322 323 9
a 323 322 9
a 323 353 9
a 353 323 9
a 323 324 10
a 324 323 10
a 324 354 1
a 354 324 1
a 324 325 10
a 325 324 10
a 325 355 1
a 355 325 1
a 325 326 8
a 326 325 8
a 326 356 8
a 356 326 8
a 326 327 1
a 327 326 1
a 327 357 1
a 357 327 1
a 327 328 10
a 328 327 10
a 328 358 3
a 358 328 3
a 330 360 2
a 360 330 2
a 332 362 4
a 362 332 4
a 332 333 2
a 333 332 2
a 333 363 4
a 363 333 4
a 333 334 4
a 334 333 4
a 334 364 10
a 364 334 10
a 334 335 4
a 335 334 4
a 335 365 7
a 365 335 7
a 335 336 4
a 336 335 4
a 336 366 9
a 366 336 9
a 336 337 5
a 337 336 5
a 337 367 2
a 367 337 2
a 337 338 3
a 338 337 3
a 338 368 6
a 368 338 6
a 338 339 1
a 339 338 1
a 339 369 10
a 369 339 10
a 339 340 2
a 340 339 2
a 340 370 3
a 370 340 3
a 340 341 1
a 341 340 1
a 341 371 9
a 371 341 9
a 341 342 4
a 342 341 4
a 342 372 3
a 372 342 3
a 342 343 8
a 343 342 8
a 343 373 3
a 373 343 3
a 343 344 4
a 344 343 4
a 344 374 1
a 374 344 1
a 344 345 7
a 345 344 7
a 345 375 7
a 375 345 7
a 345 346 5
a 346 345 5
a 346 376 6
a 376 346 6
a 346 347 1
a 347 346 1
a 347 377 2
a 377 347 2
a 347 348 1
a 348 347 1
a 348 378 3
a 378 348 3
a 348 349 4
a 349 348 4
a 349 379 9
a 379 349 9
a 349 350 6
a 350 349 6
a 350 380 7
a 380 350 7
a 350 351 5
a 351 350 5
a 351 381 9
a 381 351 9
a 351 352 9
a 352 351 9
a 352 382 6
a 382 352 6
a 352 353 10
a 353 352 10
a 353 354 7
a 354 353 7
a 354 384 2
a 384 354 2
a 354 355 10
a 355 354 10
a 355 385 9
a 385 355 9
a 355 356 7
a 356 355 7
a 356 386 7
a 386 356 7
a 356 357 7
a 357 356 7
a 357 387 6
a 387 357 6
a 357 358 6
a 358 357 6
a 358 388 8
a 388 358 8
a 358 359 7
a 359 358 7
a 359 389 2
a 389 359 2
a 359 360 7
a 360 359 7
a 361 391 8
a 391 361 8
a 361 362 7
a 362 361 7
a 362 392 10
a 392 362 10
a 362 363 3
a 363 362 3
a 363 393 4
a 393 363 4
a 363 364 1
a 364 363 1
a 364 394 1
a 394 364 1
a 364 365 4
a 365 364 4
a 365 395 3
a 395 365 3
a 365 366 7
a 366 365 7
a 366 396 7
a 396 366 7
a 366 367 5
a 367 366 5
a 367 397 3
a 397 367 3
a 367 368 2
a 368 367 2
a 368 398 8
a 398 368 8
a 368 369 4
a 369 368 4
a 369 399 3
a 399 369 3
a 369 370 10
a 370 369 10
a 370 400 5
a 400 370 5
a 370 371 10
a 371 370 10
a 371 401 7
a 401 371 7
a 371 372 3
a 372 371 3
a 372 402 1
a 402 372 1
a 372 373 4
a 373 372 4
a 373 403 2
a 403 373 2
a 373 374 5
a 374 373 5
a 374 404 1
a 404 374 1
a 374 375 10
a 375 374 10
a 375 405 5
a 405 375 5
a 375 376 6
a 376 375 6
a 376 406 6
a 406 376 6
a 376 377 7
a 377 376 7
a 377 407 7
a 407 377 7
a 377 378 10
a 378 377 10
a 378 408 2
a 408 378 2
a 378 379 5
a 379 378 5
a 379 409 7
a 409 379 7
a 379 380 1
a 380 379 1
a 380 410 6
a 410 380 6
a 380 381 6
a 381 380 6
a 381 411 2
a 411 381 2
a 381 382 10
a 382 381 10
a 382 412 9
a 412 382 9
a 384 414 5
a 414 384 5
a 384 385 6
a 385 384 6
a 385 415 6
a 415 385 6
a 385 386 1
a 386 385 1
a 386 416 4
a 416 386 4
a 386 387 5
a 387 386 5
a 387 417 8
a 417 387 8
a 387 388 1
a 388 387 1
a 388 418 7
a 418 388 7
a 388 389 2
a 389 388 2
a 389 419 4
a 419 389 4
a 391 421 6
a 421 391 6
a 391 392 8
a 392 391 8
a 392 422 10
a 422 392 10
a 392 393 10
a 393 392 10
a 393 423 4
a 423 393 4
a 393 394 8
a 394 393 8
a 394 424 9
a 424 394 9
a 394 395 1
a 395 394 1
a 395 425 4
a 425 395 4
a 395 396 5
a 396 395 5
a 396 426 5
a 426 396 5
a 396 397 4
a 397 396 4
a 397 427 5
a 427 397 5
a 397 398 6
a 398 397 6
a 398 428 3
a 428 398 3
a 398 399 7
a 399 398 7
a 399 429 6
a 429 399 6
a 399 400 7
a 400 399 7
a 400 430 10
a 430 400 10
a 400 401 3
a 401 400 3
a 401 431 10
a 431 401 10
a 401 402 5
a 402 401 5
a 402 432 3
a 432 402 3
a 402 403 9
a 403 402 9
a 403 433 7
a 433 403 7
a 403 404 10
a 404 403 10
a 404 434 10
a 434 404 10
a 404 405 4
a 405 404 4
a 405 435 6
a 435 405 6
a 405 406 4
a 406 405 4
a 406 436 10
a 436 406 10
a 406 407 2
a 407 406 2
a 407 437 8
a 437 407 8
a 407 408 5
a 408 407 5
a 408 438 2
a 438 408 2
a 408 409 5
a 409 408 5
a 409 439 4
a 439 409 4
a 409 410 10
a 410 409 10
a 410 440 8
a 440 410 8
a 410 411 10
a 411 410 10
a 411 441 5
a 441 411 5
a 411 412 7
a 412 411 7
a 412 442 5
a 442 412 5
a 412 413 5
a 413 412 5
a 413 443 9
a 443 413 9
a 413 414 2
a 414 413 2
a 414 444 3
a 444 414 3
a 414 415 4
a 415 414 4
a 415 445 10
a 445 415 10
a 415 416 4
a 416 415 4
a 416 446 3
a 446 416 3
a 416 417 7
a 417 416 7
a 417 447 10
a 447 417 10
a 417 418 7
a 418 417 7
a 418 448 6
a 448 418 6
a 418 419 3
a 419 418 3
a 419 449 8
a 449 419 8
a 419 420 10
a 420 419 10
a 420 450 8
a 450 420 8
a 421 451 7
a 451 421 7
a 421 422 8
a 422 421 8
a 422 452 5
a 452 422 5
a 422 423 8
a 423 422 8
a 423 453 6
a 453 423 6
a 423 424 1
a 424 423 1
a 424 454 7
a 454 424 7
a 424 425 9
a 425 424 9
a 425 455 1
a 455 425 1
a 425 426 5
a 426 425 5
a 426 456 2
a 456 426 2
a 426 427 1
a 427 426 1
a 427 457 10
a 457 427 10
a 427 428 9
a 428 427 9
a 428 429 4
a 429 428 4
a 429 459 8
a 459 429 8
a 429 430 4
a 430 429 4
a 430 460 8
a 460 430 8
a 430 431 8
a 431 430 8
a 431 461 5
a 461 431 5
a 431 432 5
a 432 431 5
a 432 462 3
a 462 432 3
a 432 433 5
a 433 432 5
a 433 463 7
a 463 433 7
a 433 434 5
a 434 433 5
a 434 464 4
a 464 434 4
a 434 435 3
a 435 434 3
a 435 465 1
a 465 435 1
a 435 436 9
a 436 435 9
a 436 466 1
a 466 436 1
a 436 437 2
a 437 436 2
a 437 438 3
a 438 437 3
a 438 468 9
a 468 438 9
a 438 439 8
a 439 438 8
a 439 469 5
a 469 439 5
a 439 440 9
a 440 439 9
a 440 470 3
a 470 440 3
a 440 441 8
a 441 440 8
a 441 471 7
a 471 441 7
a 441 442 7
a 442 441 7
a 442 472 3
a 472 442 3
a 442 443 8
a 443 442 8
a 443 473 8
a 473 443 8
a 443 444 5
a 444 443 5
a 444 474 8
a 474 444 8
a 444 445 4
a 445 444 4
a 445 475 4
a 475 445 4
a 445 446 1
a 446 445 1
a 446 476 3
a 476 446 3
a 446 447 7
a 447 446 7
a 447 477 5
a 477 447 5
a 447 448 9
a 448 447 9
a 448 478 10
a 478 448 10
a 448 449 10
a 449 448 10
a 449 479 5
a 479 449 5
a 449 450 10
a 450 449 10
a 450 480 9
a 480 450 9
a 451 481 5
a 481 451 5
a 451 452 7
a 452 451 7
a 452 482 8
a 482 452 8
a 452 453 3
a 453 452 3
a 453 483 3
a 483 453 3
a 453 454 7
a 454 453 7
a 454 455 4
a 455 454 4
a 455 485 1
a 485 455 1
a 455 456 3
a 456 455 3
a 456 486 8
a 486 456 8
a 456 457 7
a 457 456 7
a 457 487 8
a 487 457 8
a 459 489 4
a 489 459 4
a 459 460 2
a 460 459 2
a 460 490 3
a 490 460 3
a 460 461 2
a 461 460 2
a 461 462 4
a 462 461 4
a 462 492 8
a 492 462 8
a 462 463 10
a 463 462 10
a 463 493 2
a 493 463 2
a 463 464 8
a 464 463 8
a 464 494 5
a 494 464 5
a 464 465 8
a 465 464 8
a 465 495 9
a 495 465 9
a 465 466 5
a 466 465 5
a 466 496 8
a 496 466 8
a 468 498 5
a 498 468 5
a 468 469 3
a 469 468 3
a 469 499 7
a 499 469 7
a 469 470 4
a 470 469 4
a 470 500 4
a 500 470 4
a 470 471 5
a 471 470 5
a 471 501 4
a 501 471 4
a 471 472 4
a 472 471 4
a 472 502 5
a 502 472 5
a 472 473 4
a 473 472 4
a 473 503 9
a 503 473 9
a 473 474 9
a 474 473 9
a 474 504 7
a 504 474 7
a 474 475 7
a 475 474 7
a 475 505 6
a 505 475 6
a 475 476 10
a 476 475 10
a 476 506 8
a 506 476 8
a 476 477 3
a 477 476 3
a 477 507 6
a 507 477 6
a 477 478 10
a 478 477 10
a 478 508 2
a 508 478 2
a 478 479 5
a 479 478 5
a 479 509 9
a 509 479 9
a 479 480 5
a 480 479 5
a 480 510 1
a 510 480 1
a 481 511 3
a 511 481 3
a 481 482 9
a 482 481 9
a 482 512 4
a 512 482 4
a 482 483 3
a 483 482 3
a 483 513 6
a 513 483 6
a 485 515 5
a 515 485 5
a 485 486 2
a 486 485 2
a 486 516 9
a 516 486 9
a 486 487 10
a 487 486 10
a 487 517 10
a 517 487 10
a 489 519 3
a 519 489 3
a 489 490 4
a 490 489 4
a 490 520 1
a 520 490 1
a 492 522 1
a 522 492 1
a 492 493 4
a 493 492 4
a 493 523 7
a 523 493 7
a 493 494 7
a 494 493 7
a 494 524 8
a 524 494 8
a 494 495 9
a 495 494 9
a 495 525 3
a 525 495 3
a 495 496 9
a 496 495 9
a 496 526 7
a 526 496 7
a 496 497 7
a 497 496 7
a 497 527 8
a 527 497 8
a 497 498 7
a 498 497 7
a 498 528 2
a 528 498 2
a 498 499 1
a 499 498 1
a 499 529 8
a 529 499 8
a 499 500 1
a 500 499 1
a 500 530 4
a 530 500 4
a 500 501 2
a 501 500 2
a 501 531 10
a 531 501 10
a 501 502 4
a 502 501 4
a 502 532 3
a 532 502 3
a 502 503 6
a 503 502 6
a 503 533 3
a 533 503 3
a 503 504 7
a 504 503 7
a 504 534 7
a 534 504 7
a 504 505 3
a 505 504 3
a 505 535 9
a 535 505 9
a 505 506 7
a 506 505 7
a 506 536 9
a 536 506 9
a 506 507 9
a 507 506 9
a 507 537 10
a 537 507 10
a 507 508 2
a 508 507 2
a 508 538 10
a 538 508 10
a 508 509 4
a 509 508 4
a 509 539 5
a 539 509 5
a 509 510 5
a 510 509 5
a 510 540 6
a 540 510 6
a 511 512 2
a 512 511 2
a 512 542 5
a 542 512 5
a 512 513 8
a 513 512 8
a 513 514 9
a 514 513 9
a 514 544 10
a 544 514 10
a 514 515 10
a 515 514 10
a 515 545 7
a 545 515 7
a 515 516 3
a 516 515 3
a 516 546 10
a 546 516 10
a 516 517 6
a 517 516 6
a 517 547 2
a 547 517 2
a 517 518 10
a 518 517 10
a 518 548 3
a 548 518 3
a 518 519 2
a 519 518 2
a 519 549 10
a 549 519 10
a 519 520 9
a 520 519 9
a 520 550 2
a 550 520 2
a 520 521 7
a 521 520 7
a 521 551 8
a 551 521 8
a 521 522 1
a 522 521 1
a 522 552 6
a 552 522 6
a 522 523 10
a 523 522 10
a 523 553 7
a 553 523 7
a 523 524 7
a 524 523 7
a 524 554 7
a 554 524 7
a 524 525 3
a 525 524 3
a 525 555 7
a 555 525 7
a 525 526 8
a 526 525 8
a 526 556 7
a 556 526 7
a 526 527 8
a 527 526 8
a 527 557 9
a 557 527 9
a 527 528 8
a 528 527 8
a 528 529 6
a 529 528 6
a 529 559 4
a 559 529 4
a 529 530 1
a 530 529 1
a 530 560 2
a 560 530 2
a 530 531 6
a 531 530 6
a 531 561 6
a 561 531 6
a 531 532 8
a 532 531 8
a 532 562 6
a 562 532 6
a 532 533 7
a 533 532 7
a 533 563 2
a 563 533 2
a 533 534 10
a 534 533 10
a 534 564 2
a 564 534 2
a 534 535 9
a 535 534 9
a 535 565 5
a 565 535 5
a 535 536 8
a 536 535 8
a 536 566 9
a 566 536 9
a 536 537 6
a 537 536 6
a 537 567 6
a 567 537 6
a 537 538 7
a 538 537 7
a 538 568 3
a 568 538 3
a 538 539 7
a 539 538 7
a 539 569 3
a 569 539 3
a 539 540 4
a 540 539 4
a 540 570 9
a 570 540 9
a 542 572 6
a 572 542 6
a 544 574 9
a 574 544 9
a 544 545 5
a 545 544 5
a 545 575 2
a 575 545 2
a 545 546 7
a 546 545 7
a 546 576 10
a 576 546 10
a 546 547 4
a 547 546 4
a 547 577 8
a 577 547 8
a 547 548 5
a 548 547 5
a 548 578 4
a 578 548 4
a 548 549 4
a 549 548 4
a 549 579 2
a 579 549 2
a 549 550 1
a 550 549 1
a 550 580 2
a 580 550 2
a 550 551 5
a 551 550 5
a 551 581 1
a 581 551 1
a 551 552 6
a 552 551 6
a 552 582 3
a 582 552 3
a 552 553 6
a 553 552 6
a 553 554 2
a 554 553 2
a 554 584 3
a 584 554 3
a 554 555 2
a 555 554 2
a 555 556 9
a 556 555 9
a 556 586 5
a 586 556 5
a 556 557 5
a 557 556 5
a 559 589 8
a 589 559 8
a 559 560 6
a 560 559 6
a 560 590 6
a 590 560 6
a 560 561 2
a 561 560 2
a 561 591 1
a 591 561 1
a 561 562 2
a 562 561 2
a 562 592 3
a 592 562 3
a 562 563 3
a 563 562 3
a 563 593 7
a 593 563 7
a 563 564 1
a 564 563 1
a 564 594 3
a 594 564 3
a 564 565 3
a 565 564 3
a 565 595 1
a 595 565 1
a 565 566 2
a 566 565 2
a 566 596 4
a 596 566 4
a 566 567 3
a 567 566 3
a 567 597 1
a 597 567 1
a 567 568 3
a 568 567 3
a 568 598 5
a 598 568 5
a 568 569 2
a 569 568 2
a 569 599 4
a 599 569 4
a 569 570 3
a 570 569 3
a 570 600 7
a 600 570 7
a 571 601 7
a 601 571 7
a 571 572 1
a 572 571 1
a 572 602 8
a 602 572 8
a 574 604 6
a 604 574 6
a 574 575 2
a 575 574 2
a 575 605 3
a 605 575 3
a 575 576 9
a 576 575 9
a 576 606 4
a 606 576 4
a 576 577 4
a 577 576 4
a 577 607 10
a 607 577 10
a 577 578 9
a 578 577 9
a 578 608 5
a 608 578 5
a 578 579 8
a 579 578 8
a 579 609 3
a 609 579 3
a 579 580 7
a 580 579 7
a 580 610 3
a 610 580 3
a 580 581 5
a 581 580 5
a 581 611 5
a 611 581 5
a 581 582 10
a 582 581 10
a 582 612 10
a 612 582 10
a 584 614 6
a 614 584 6
a 586 616 4
a 616 586 4
a 588 618 2
a 618 588 2
a 588 589 4
a 589 588 4
a 589 619 2
a 619 589 2
a 589 590 3
a 590 589 3
a 590 620 5
a 620 590 5
a 590 591 5
a 591 590 5
a 591 621 1
a 621 591 1
a 591 592 3
a 592 591 3
a 592 622 1
a 622 592 1
a 592 593 7
a 593 592 7
a 593 623 5
a 623 593 5
a 593 594 3
a 594 593 3
a 594 624 1
a 624 594 1
a 594 595 3
a 595 594 3
a 595 625 2
a 625 595 2
a 595 596 2
a 596 595 2
a 596 626 3
a 626 596 3
a 596 597 4
a 597 596 4
a 597 627 1
a 627 597 1
a 597 598 3
a 598 597 3
a 598 628 6
a 628 598 6
a 598 599 9
a 599 598 9
a 599 600 2
a 600 599 2
a 600 630 5
a 630 600 5
a 601 631 8
a 631 601 8
a 601 602 5
a 602 601 5
a 602 632 3
a 632 602 3
a 602 603 5
a 603 602 5
a 603 633 4
a 633 603 4
a 603 604 7
a 604 603 7
a 604 634 4
a 634 604 4
a 604 605 4
a 605 604 4
a 605 635 10
a 635 605 10
a 605 606 2
a 606 605 2
a 606 636 6
a 636 606 6
a 606 607 1
a 607 606 1
a 607 637 7
a 637 607 7
a 607 608 10
a 608 607 10
a 608 638 2
a 638 608 2
a 608 609 5
a 609 608 5
a 609 639 7
a 639 609 7
a 609 610 5
a 610 609 5
a 610 640 2
a 640 610 2
a 610 611 10
a 611 610 10
a 611 641 4
a 641 611 4
a 611 612 8
a 612 611 8
a 612 642 1
a 642 612 1
a 612 613 7
a 613 612 7
a 613 614 9
a 614 613 9
a 614 644 6
a 644 614 6
a 614 615 4
a 615 614 4
a 615 645 4
a 645 615 4
a 615 616 2
a 616 615 2
a 616 646 3
a 646 616 3
a 616 617 3
a 617 616 3
a 617 647 2
a 647 617 2
a 617 618 9
a 618 617 9
a 618 648 8
a 648 618 8
a 618 619 8
a 619 618 8
a 619 649 8
a 649 619 8
a 619 620 8
a 620 619 8
a 620 650 4
a 650 620 4
a 620 621 5
a 621 620 5
a 621 651 6
a 651 621 6
a 621 622 3
a 622 621 3
a 622 652 6
a 652 622 6
a 622 623 4
a 623 622 4
a 623 653 5
a 653 623 5
a 623 624 10
a 624 623 10
a 624 625 8
a 625 624 8
a 625 655 2
a 655 625 2
a 625 626 4
a 626 625 4
a 626 627 1
a 627 626 1
a 627 657 2
a 657 627 2
a 627 628 8
a 628 627 8
a 628 658 1
a 658 628 1
a 630 660 9
a 660 630 9
a 631 661 1
a 661 631 1
a 631 632 8
a 632 631 8
a 632 662 5
a 662 632 5
a 632 633 6
a 633 632 6
a 633 663 9
a 663 633 9
a 633 634 7
a 634 633 7
a 634 664 3
a 664 634 3
a 634 635 9
a 635 634 9
a 635 665 1
a 665 635 1
a 635 636 6
a 636 635 6
a 636 666 4
a 666 636 4
a 636 637 8
a 637 636 8
a 637 667 2
a 667 637 2
a 637 638 5
a 638 637 5
a 638 639 6
a 639 638 6
a 639 669 3
a 669 639 3
a 639 640 1
a 640 639 1
a 640 670 6
a 670 640 6
a 640 641 6
a 641 640 6
a 641 671 6
a 671 641 6
a 641 642 1
a 642 641 1
a 642 672 5
a 672 642 5
a 644 674 5
a 674 644 5
a 644 645 8
a 645 644 8
a 645 675 1
a 675 645 1
a 645 646 10
a 646 645 10
a 646 676 8
a 676 646 8
a 646 647 9
a 647 646 9
a 647 677 8
a 677 647 8
a 647 648 3
a 648 647 3
a 648 678 5
a 678 648 5
a 648 649 6
a 649 648 6
a 649 650 2
a 650 649 2
a 650 680 7
a 680 650 7
a 650 651 10
a 651 650 10
a 651 681 10
a 681 651 10
a 651 652 10
a 652 651 10
a 652 682 1
a 682 652 1
a 652 653 3
a 653 652 3
a 653 683 3
a 683 653 3
a 655 685 8
a 685 655 8
a 657 687 2
a 687 657 2
a 657 658 2
a 658 657 2
a 658 688 6
a 688 658 6
a 658 659 10
a 659 658 10
a 659 689 1
a 689 659 1
a 659 660 6
a 660 659 6
a 660 690 6
a 690 660 6
a 661 691 6
a 691 661 6
a 661 662 5
a 662 661 5
a 662 692 7
a 692 662 7
a 662 663 3
a 663 662 3
a 663 693 2
a 693 663 2
a 663 664 9
a 664 663 9
a 664 694 9
a 694 664 9
a 664 665 4
a 665 664 4
a 665 695 6
a 695 665 6
a 665 666 3
a 666 665 3
a 666 696 2
a 696 666 2
a 666 667 10
a 667 666 10
a 667 697 6
a 697 667 6
a 669 699 5
a 699 669 5
a 669 670 4
a 670 669 4
a 670 700 4
a 700 670 4
a 670 671 5
a 671 670 5
a 671 701 8
a 701 671 8
a 671 672 8
a 672 671 8
a 672 702 6
a 702 672 6
a 672 673 10
a 673 672 10
a 673 703 4
a 703 673 4
a 673 674 9
a 674 673 9
a 674 704 7
a 704 674 7
a 674 675 6
a 675 674 6
a 675 705 10
a 705 675 10
a 675 676 10
a 676 675 10
a 676 706 10
a 706 676 10
a 676 677 7
a 677 676 7
a 677 678 5
a 678 677 5
a 678 708 3
a 708 678 3
a 680 710 5
a 710 680 5
a 680 681 10
a 681 680 10
a 681 711 5
a 711 681 5
a 681 682 8
a 682 681 8
a 682 712 6
a 712 682 6
a 682 683 9
a 683 682 9
a 683 713 8
a 713 683 8
a 683 684 3
a 684 683 3
a 684 714 8
a 714 684 8
a 684 685 7
a 685 684 7
a 685 715 6
a 715 685 6
a 685 686 4
a 686 685 4
a 686 716 4
a 716 686 4
a 686 687 8
a 687 686 8
a 687 717 5
a 717 687 5
a 687 688 2
a 688 687 2
a 688 718 6
a 718 688 6
a 688 689 1
a 689 688 1
a 689 719 10
a 719 689 10
a 689 690 7
a 690 689 7
a 690 720 10
a 720 690 10
a 691 721 4
a 721 691 4
a 691 692 9
a 692 691 9
a 692 722 6
a 722 692 6
a 692 693 1
a 693 692 1
a 693 723 4
a 723 693 4
a 693 694 6
a 694 693 6
a 694 695 3
a 695 694 3
a 695 725 1
a 725 695 1
a 695 696 8
a 696 695 8
a 696 726 2
a 726 696 2
a 696 697 10
a 697 696 10
a 697 727 7
a 727 697 7
a 697 698 4
a 698 697 4
a 698 728 6
a 728 698 6
a 698 699 5
a 699 698 5
a 699 729 2
a 729 699 2
a 699 700 5
a 700 699 5
a 700 730 5
a 730 700 5
a 700 701 3
a 701 700 3
a 701 731 9
a 731 701 9
a 701 702 3
a 702 701 3
a 702 732 10
a 732 702 10
a 702 703 4
a 703 702 4
a 703 733 3
a 733 703 3
a 703 704 6
a 704 703 6
a 704 734 3
a 734 704 3
a 704 705 8
a 705 704 8
a 705 735 8
a 735 705 8
a 705 706 6
a 706 705 6
a 706 736 9
a 736 706 9
a 708 738 2
a 738 708 2
a 708 709 7
a 709 708 7
a 709 739 9
a 739 709 9
a 709 710 1
a 710 709 1
a 710 740 10
a 740 710 10
a 710 711 1
a 711 710 1
a 711 741 8
a 741 711 8
a 711 712 2
a 712 711 2
a 712 742 6
a 742 712 6
a 712 713 10
a 713 712 10
a 713 743 5
a 743 713 5
a 713 714 7
a 714 713 7
a 714 744 7
a 744 714 7
a 714 715 2
a 715 714 2
a 715 745 3
a 745 715 3
a 715 716 6
a 716 715 6
a 716 746 3
a 746 716 3
a 716 717 1
a 717 716 1
a 717 747 3
a 747 717 3
a 717 718 2
a 718 717 2
a 718 748 5
a 748 718 5
a 718 719 6
a 719 718 6
a 719 749 5
a 749 719 5
a 719 720 5
a 720 719 5
a 720 750 6
a 750 720 6
a 721 751 2
a 751 721 2
a 721 722 10
a 722 721 10
a 722 752 5
a 752 722 5
a 722 723 10
a 723 722 10
a 723 753 8
a 753 723 8
a 725 755 9
a 755 725 9
a 725 726 9
a 726 725 9
a 726 756 8
a 756 726 8
a 726 727 8
a 727 726 8
a 727 757 8
a 757 727 8
a 727 728 3
a 728 727 3
a 728 758 2
a 758 728 2
a 728 729 2
a 729 728 2
a 729 759 1
a 759 729 1
a 729 730 5
a 730 729 5
a 730 760 4
a 760 730 4
a 730 731 3
a 731 730 3
a 731 761 4
a 761 731 4
a 731 732 9
a 732 731 9
a 732 762 8
a 762 732 8
a 732 733 8
a 733 732 8
a 733 763 3
a 763 733 3
a 733 734 9
a 734 733 9
a 734 764 2
a 764 734 2
a 734 735 8
a 735 734 8
a 735 765 8
a 765 735 8
a 735 736 9
a 736 735 9
a 736 766 4
a 766 736 4
a 736 737 2
a 737 736 2
a 737 767 2
a 767 737 2
a 737 738 5
a 738 737 5
a 738 739 5
a 739 738 5
a 739 769 6
a 769 739 6
a 739 740 2
a 740 739 2
a 740 770 4
a 770 740 4
a 740 741 3
a 741 740 3
a 741 771 2
a 771 741 2
a 741 742 6
a 742 741 6
a 742 772 2
a 772 742 2
a 742 743 6
a 743 742 6
a 743 773 2
a 773 743 2
a 743 744 5
a 744 743 5
a 744 774 6
a 774 744 6
a 744 745 4
a 745 744 4
a 745 775 6
a 775 745 6
a 745 746 8
a 746 745 8
a 746 776 1
a 776 746 1
a 746 747 5
a 747 746 5
a 747 777 1
a 777 747 1
a 747 748 2
a 748 747 2
a 748 778 7
a 778 748 7
a 748 749 6
a 749 748 6
a 749 779 8
a 779 749 8
a 749 750 5
a 750 749 5
a 750 780 8
a 780 750 8
a 751 781 2
a 781 751 2
a 751 752 9
a 752 751 9
a 752 782 2
a 782 752 2
a 752 753 8
a 753 752 8
a 753 783 5
a 783 753 5
a 753 754 1
a 754 753 1
a 754 784 6
a 784 754 6
a 754 755 1
a 755 754 1
a 755 785 2
a 785 755 2
a 755 756 6
a 756 755 6
a 756 786 9
a 786 756 9
a 756 757 1
a 757 756 1
a 757 787 4
a 787 757 4
a 757 758 5
a 758 757 5
a 758 759 3
a 759 758 3
a 759 789 1
a 789 759 1
a 759 760 10
a 760 759 10
a 760 790 5
a 790 760 5
a 760 761 8
a 761 760 8
a 761 791 1
a 791 761 1
a 761 762 9
a 762 761 9
a 762 792 5
a 792 762 5
a 762 763 3
a 763 762 3
a 763 793 9
a 793 763 9
a 763 764 10
a 764 763 10
a 764 794 5
a 794 764 5
a 764 765 7
a 765 764 7
a 765 795 9
a 795 765 9
a 765 766 10
a 766 765 10
a 766 796 8
a 796 766 8
a 766 767 1
a 767 766 1
a 767 797 6
a 797 767 6
a 769 799 8
a 799 769 8
a 769 770 8
a 770 769 8
a 770 800 8
a 800 770 8
a 770 771 9
a 771 770 9
a 771 801 7
a 801 771 7
a 771 772 8
a 772 771 8
a 772 802 4
a 802 772 4
a 772 773 5
a 773 772 5
a 773 803 9
a 803 773 9
a 773 774 7
a 774 773 7
a 774 775 5
a 775 774 5
a 775 805 2
a 805 775 2
a 775 776 1
a 776 775 1
a 776 806 7
a 806 776 7
a 776 777 3
a 777 776 3
a 777 807 10
a 807 777 10
a 777 778 8
a 778 777 8
a 778 808 7
a 808 778 7
a 778 779 7
a 779 778 7
a 779 809 7
a 809 779 7
a 779 780 9
a 780 779 9
a 780 810 6
a 810 780 6
a 781 811 6
a 811 781 6
a 781 782 10
a 782 781 10
a 782 812 6
a 812 782 6
a 782 783 4
a 783 782 4
a 783 813 9
a 813 783 9
a 783 784 5
a 784 783 5
a 784 814 5
a 814 784 5
a 784 785 8
a 785 784 8
a 785 815 7
a 815 785 7
a 785 786 3
a 786 785 3
a 786 816 3
a 816 786 3
a 786 787 10
a 787 786 10
a 787 817 7
a 817 787 7
a 789 819 10
a 819 789 10
a 789 790 4
a 790 789 4
a 790 820 1
a 820 790 1
a 790 791 5
a 791 790 5
a 791 821 9
a 821 791 9
a 791 792 3
a 792 791 3
a 792 822 9
a 822 792 9
a 792 793 4
a 793 792 4
a 793 823 5
a 823 793 5
a 793 794 6
a 794 793 6
a 794 824 7
a 824 794 7
a 794 795 7
a 795 794 7
a 795 796 5
a 796 795 5
a 796 826 9
a 826 796 9
a 796 797 10
a 797 796 10
a 797 827 9
a 827 797 9
a 797 798 9
a 798 797 9
a 798 828 5
a 828 798 5
a 798 799 5
a 799 798 5
a 799 829 6
a 829 799 6
a 799 800 8
a 800 799 8
a 800 830 5
a 830 800 5
a 800 801 9
a 801 800 9
a 801 831 1
a 831 801 1
a 801 802 2
a 802 801 2
a 802 832 9
a 832 802 9
a 802 803 2
a 803 802 2
a 803 833 3
a 833 803 3
a 805 835 5
a 835 805 5
a 805 806 9
a 806 805 9
a 806 836 10
a 836 806 10
a 806 807 4
a 807 806 4
a 807 837 1
a 837 807 1
a 807 808 6
a 808 807 6
a 808 838 7
a 838 808 7
a 808 809 5
a 809 808 5
a 809 839 7
a 839 809 7
a 809 810 8
a 810 809 8
a 810 840 1
a 840 810 1
a 811 841 4
a 841 811 4
a 811 812 9
a 812 811 9
a 812 842 9
a 842 812 9
a 812 813 4
a 813 812 4
a 813 843 2
a 843 813 2
a 813 814 7
a 814 813 7
a 814 844 4
a 844 814 4
a 814 815 7
a 815 814 7
a 815 845 2
a 845 815 2
a 815 816 2
a 816 815 2
a 816 846 5
a 846 816 5
a 816 817 1
a 817 816 1
a 817 847 8
a 847 817 8
a 817 818 6
a 818 817 6
a 818 848 5
a 848 818 5
a 818 819 6
a 819 818 6
a 819 849 4
a 849 819 4
a 819 820 4
a 820 819 4
a 820 850 8
a 850 820 8
a 820 821 10
a 821 820 10
a 821 851 8
a 851 821 8
a 821 822 5
a 822 821 5
a 822 852 6
a 852 822 6
a 822 823 1
a 823 822 1
a 823 853 3
a 853 823 3
a 823 824 1
a 824 823 1
a 824 854 10
a 854 824 10
a 826 856 2
a 856 826 2
a 826 827 1
a 827 826 1
a 827 857 6
a 857 827 6
a 827 828 7
a 828 827 7
a 828 858 6
a 858 828 6
a 828 829 5
a 829 828 5
a 829 859 4
a 859 829 4
a 829 830 1
a 830 829 1
a 830 860 4
a 860 830 4
a 830 831 5
a 831 830 5
a 831 861 9
a 861 831 9
a 831 832 9
a 832 831 9
a 832 862 10
a 862 832 10
a 832 833 3
a 833 832 3
a 833 863 2
a 863 833 2
a 833 834 2
a 834 833 2
a 834 864 7
a 864 834 7
a 834 835 7
a 835 834 7
a 835 865 8
a 865 835 8
a 835 836 8
a 836 835 8
a 836 866 5
a 866 836 5
a 836 837 5
a 837 836 5
a 837 867 4
a 867 837 4
a 837 838 1
a 838 837 1
a 838 868 7
a 868 838 7
a 838 839 1
a 839 838 1
a 839 869 10
a 869 839 10
a 839 840 8
a 840 839 8
a 840 870 4
a 870 840 4
a 841 871 4
a 871 841 4
a 841 842 9
a 842 841 9
a 842 872 4
a 872 842 4
a 842 843 9
a 843 842 9
a 843 873 6
a 873 843 6
a 843 844 6
a 844 843 6
a 844 874 2
a 874 844 2
a 844 845 3
a 845 844 3
a 845 875 7
a 875 845 7
a 845 846 2
a 846 845 2
a 846 876 9
a 876 846 9
a 846 847 6
a 847 846 6
a 847 877 4
a 877 847 4
a 847 848 5
a 848 847 5
a 848 878 5
a 878 848 5
a 848 849 5
a 849 848 5
a 849 879 6
a 879 849 6
a 849 850 10
a 850 849 10
a 850 880 9
a 880 850 9
a 850 851 9
a 851 850 9
a 851 881 10
a 881 851 10
a 851 852 6
a 852 851 6
a 852 882 1
a 882 852 1
a 852 853 6
a 853 852 6
a 853 883 9
a 883 853 9
a 853 854 2
a 854 853 2
a 854 884 8
a 884 854 8
a 854 855 6
a 855 854 6
a 855 885 4
a 885 855 4
a 855 856 5
a 856 855 5
a 856 886 10
a 886 856 10
a 856 857 10
a 857 856 10
a 857 858 1
a 858 857 1
a 858 888 9
a 888 858 9
a 858 859 8
a 859 858 8
a 859 889 3
a 889 859 3
a 859 860 6
a 860 859 6
a 860 890 6
a 890 860 6
a 860 861 10
a 861 860 10
a 861 891 8
a 891 861 8
a 861 862 7
a 862 861 7
a 862 892 2
a 892 862 2
a 862 863 5
a 863 862 5
a 863 893 3
a 893 863 3
a 863 864 6
a 864 863 6
a 864 894 2
a 894 864 2
a 864 865 10
a 865 864 10
a 865 895 5
a 895 865 5
a 865 866 8
a 866 865 8
a 866 896 8
a 896 866 8
a 866 867 10
a 867 866 10
a 867 897 2
a 897 867 2
a 867 868 9
a 868 867 9
a 868 898 7
a 898 868 7
a 868 869 3
a 869 868 3
a 869 899 6
a 899 869 6
a 869 870 8
a 870 869 8
a 870 900 9
a 900 870 9
a 871 872 5
a 872 871 5
a 872 873 4
a 873 872 4
a 873 874 5
a 874 873 5
a 874 875 2
a 875 874 2
a 875 876 5
a 876 875 5
a 876 877 9
a 877 876 9
a 877 878 6
a 878 877 6
a 878 879 3
a 879 878 3
a 879 880 5
a 880 879 5
a 880 881 7
a 881 880 7
a 881 882 7
a 882 881 7
a 882 883 1
a 883 882 1
a 883 884 6
a 884 883 6
a 884 885 2
a 885 884 2
a 885 886 1
a 886 885 1
a 888 889 5
a 889 888 5
a 889 890 1
a 890 889 1
a 890 891 2
a 891 890 2
a 891 892 7
a 892 891 7
a 892 893 5
a 893 892 5
a 893 894 1
a 894 893 1
a 894 895 8
a 895 894 8
a 895 896 3
a 896 895 3
a 896 897 4
a 897 896 4
a 897 898 5
a 898 897 5
a 898 899 1
a 899 898 1
a 899 900 5
a 900 899 5
